100
32
13
3
23
4
9
2
26
17
15
26
9
17
1
26
14
5
11
30
13
1
27
13
18
17
22
25
1
17
17
1
17
24
24
18
8
8
10
12
9
1
11
25
2
9
8
25
4
1
1
21
18
26
17
8
2
4
1
30
1
15
10
9
10
9
15
1
10
18
8
4
1
1
4
2
12
15
1
1
9
17
1
1
10
11
12
3
12
20
24
25
12
21
10
7
1
1
11
2
10
6